p cnf 20 15
-12 15 14 -18 -3 0
9 15 2 16 1 0
1 15 8 12 -9 0
14 -12 6 2 -20 0
2 3 -7 -16 -20 0
20 -5 -12 4 13 0
12 8 13 -3 20 0
17 10 -15 14 -11 0
-11 -17 -9 2 4 0
-20 7 11 -14 -9 0
19 3 17 -11 12 0
-17 10 -5 -15 -3 0
14 -9 -7 -17 19 0
12 1 -20 -16 17 0
-18 -20 -14 -19 -17 0
